RT is False
Default write of storage_offers_DA.csv just to have a file (but constraint should be inactive)
Reading model...
...model read.
creating competitive generators file...
...competitive generators recorded.
Loading data...
.. day-ahead data with real-time VRE data read.
Compiling instance...
...instance created.
Creating Offer Mitigation (model will solve as dispatch if TRUE)...
NOTE: storage offers will not be mitigated
...storage offer mitigation file created
Converting model to MPEC...
...converted
NOTE: initial MIP solve with only storage competitive to get feasible solution
Solving...

Welcome to IBM(R) ILOG(R) CPLEX(R) Interactive Optimizer 12.9.0.0
  with Simplex, Mixed Integer & Barrier Optimizers
5725-A06 5725-A29 5724-Y48 5724-Y49 5724-Y54 5724-Y55 5655-Y21
Copyright IBM Corp. 1988, 2019.  All Rights Reserved.

Type 'help' for a list of available commands.
Type 'help' followed by a command name for more
information on commands.

CPLEX> Logfile 'cplex.log' closed.
Logfile 'C:\Users\llavin\Desktop\test826\logs\tmpl8nxr3cf.cplex.log' open.
CPLEX> New value for parallel optimization mode: -1
CPLEX> New value for mixed integer optimality gap tolerance: 0.01
CPLEX> New value for feasibility tolerance: 1e-09
CPLEX> New value for deterministic time limit in ticks: 100000
CPLEX> Problem 'C:\Users\llavin\Desktop\test826\logs\tmp168lqty1.pyomo.lp' read.
Read time = 0.23 sec. (14.72 ticks)
CPLEX> Problem name         : C:\Users\llavin\Desktop\test826\logs\tmp168lqty1.pyomo.lp
Objective sense      : Maximize
Variables            :   53805  [Nneg: 1,  Box: 22000,  Free: 4464,
                                 Binary: 27340]
Objective nonzeros   :    9029
Linear constraints   :  123205  [Less: 41346,  Greater: 59096,  Equal: 22763]
  Nonzeros           :  291753
  RHS nonzeros       :   67495

Variables            : Min LB: -5000.000        Max UB: 1000000.       
Objective nonzeros   : Min   : 0.07500000       Max   : 2500.000       
Linear constraints   :
  Nonzeros           : Min   : 0.07500000       Max   : 1000000.       
  RHS nonzeros       : Min   : 0.07500000       Max   : 1000000.       
CPLEX> CPXPARAM_Parallel                                -1
CPXPARAM_Simplex_Tolerances_Feasibility          1.0000000000000001e-09
CPXPARAM_DetTimeLimit                            100000
CPXPARAM_MIP_Tolerances_MIPGap                   0.01
Tried aggregator 3 times.
MIP Presolve eliminated 88683 rows and 19007 columns.
MIP Presolve added 3379 rows and 0 columns.
MIP Presolve modified 24806 coefficients.
Aggregator did 12979 substitutions.
Reduced MIP has 24922 rows, 21263 columns, and 71095 nonzeros.
Reduced MIP has 8405 binaries, 0 generals, 0 SOSs, and 0 indicators.
Presolve time = 0.30 sec. (168.00 ticks)
Probing fixed 394 vars, tightened 4002 bounds.
Probing time = 0.06 sec. (18.58 ticks)
Tried aggregator 2 times.
MIP Presolve eliminated 890 rows and 789 columns.
MIP Presolve modified 3029 coefficients.
Aggregator did 35 substitutions.
Reduced MIP has 23997 rows, 20439 columns, and 68416 nonzeros.
Reduced MIP has 8011 binaries, 0 generals, 0 SOSs, and 0 indicators.
Presolve time = 0.11 sec. (89.07 ticks)
Probing fixed 0 vars, tightened 261 bounds.
Probing time = 0.14 sec. (22.76 ticks)
Clique table members: 44690.
MIP emphasis: balance optimality and feasibility.
MIP search method: dynamic search.
Parallel mode: opportunistic, using up to 32 threads.
Root relaxation solution time = 0.48 sec. (669.63 ticks)

        Nodes                                         Cuts/
   Node  Left     Objective  IInf  Best Integer    Best Bound    ItCnt     Gap

      0     0     3954.6141    83                   3954.6141     4593         
      0     0     3954.6141     1                     Cuts: 3     4596         
      0     0     3954.6141     1                   Covers: 1     4600         
      0     0     3954.6141     3                   Covers: 1     4607         
*     0+    0                         3862.1590     3954.6141             2.39%

Repeating presolve.
Tried aggregator 2 times.
MIP Presolve eliminated 10573 rows and 8181 columns.
MIP Presolve modified 24893 coefficients.
Aggregator did 211 substitutions.
Reduced MIP has 13213 rows, 12047 columns, and 39883 nonzeros.
Reduced MIP has 4498 binaries, 0 generals, 0 SOSs, and 0 indicators.
Presolve time = 0.11 sec. (59.25 ticks)
Probing fixed 528 vars, tightened 27225 bounds.
Probing time = 0.23 sec. (114.48 ticks)
Cover probing fixed 7 vars, tightened 1357 bounds.
Tried aggregator 3 times.
MIP Presolve eliminated 4562 rows and 4442 columns.
MIP Presolve modified 3302 coefficients.
Aggregator did 42 substitutions.
Reduced MIP has 8609 rows, 7563 columns, and 27091 nonzeros.
Reduced MIP has 2804 binaries, 0 generals, 0 SOSs, and 0 indicators.
Presolve time = 0.03 sec. (26.67 ticks)
Probing fixed 27 vars, tightened 4445 bounds.
Probing time = 0.06 sec. (32.41 ticks)
Cover probing fixed 8 vars, tightened 122 bounds.
Tried aggregator 2 times.
MIP Presolve eliminated 132 rows and 105 columns.
MIP Presolve modified 2309 coefficients.
Aggregator did 1 substitutions.
Reduced MIP has 8476 rows, 7457 columns, and 26690 nonzeros.
Reduced MIP has 2763 binaries, 0 generals, 0 SOSs, and 0 indicators.
Presolve time = 0.03 sec. (21.52 ticks)
Represolve time = 0.59 sec. (284.87 ticks)
Probing fixed 13 vars, tightened 2597 bounds.
Probing time = 0.05 sec. (15.03 ticks)
Cover probing fixed 1 vars, tightened 112 bounds.
Clique table members: 4433.
MIP emphasis: balance optimality and feasibility.
MIP search method: dynamic search.
Parallel mode: opportunistic, using up to 32 threads.
Root relaxation solution time = 0.17 sec. (188.86 ticks)

        Nodes                                         Cuts/
   Node  Left     Objective  IInf  Best Integer    Best Bound    ItCnt     Gap

*     0+    0                         3862.1590     3954.6141             2.39%
      0     0     3952.0203    32     3862.1590     3952.0203     7912    2.33%

Cover cuts applied:  1
Implied bound cuts applied:  9
Flow cuts applied:  4
Mixed integer rounding cuts applied:  14
Gomory fractional cuts applied:  7

Root node processing (before b&c):
  Real time             =    4.25 sec. (3062.54 ticks)
Parallel b&c, 32 threads:
  Real time             =    0.00 sec. (0.00 ticks)
  Sync time (average)   =    0.00 sec.
  Wait time (average)   =    0.00 sec.
                          ------------
Total (root+branch&cut) =    4.25 sec. (3062.54 ticks)

Solution pool: 1 solution saved.

MIP - Integer optimal, tolerance (0.01/1e-06):  Objective =  3.8621589813e+03
Current MIP best bound =  3.8640449943e+03 (gap = 1.88601, 0.05%)
Solution time =    4.25 sec.  Iterations = 7935  Nodes = 0 (1)
Deterministic time = 3062.70 ticks  (720.63 ticks/sec)

CPLEX> Incumbent solution written to file 'C:\Users\llavin\Desktop\test826\logs\tmp959x_n41.cplex.sol'.
CPLEX> NOTE: no warmstart specified for MIP iteration, default behavior is true
NOTE: resolving with all competitive generators using storage-only solution to warmstart
Solving...

Welcome to IBM(R) ILOG(R) CPLEX(R) Interactive Optimizer 12.9.0.0
  with Simplex, Mixed Integer & Barrier Optimizers
5725-A06 5725-A29 5724-Y48 5724-Y49 5724-Y54 5724-Y55 5655-Y21
Copyright IBM Corp. 1988, 2019.  All Rights Reserved.

Type 'help' for a list of available commands.
Type 'help' followed by a command name for more
information on commands.

CPLEX> Logfile 'cplex.log' closed.
Logfile 'C:\Users\llavin\Desktop\test826\logs\tmp5y25s0mn.cplex.log' open.
CPLEX> New value for parallel optimization mode: -1
CPLEX> New value for mixed integer optimality gap tolerance: 0.01
CPLEX> New value for feasibility tolerance: 1e-09
CPLEX> New value for deterministic time limit in ticks: 100000
CPLEX> Problem 'C:\Users\llavin\Desktop\test826\logs\tmpgucjsr84.pyomo.lp' read.
Read time = 0.23 sec. (14.74 ticks)
CPLEX> MIP start file 'C:\Users\llavin\Desktop\test826\logs\tmpldlht4b2.cplex.mst' read.
CPLEX> Problem name         : C:\Users\llavin\Desktop\test826\logs\tmpgucjsr84.pyomo.lp
Objective sense      : Maximize
Variables            :   54525  [Nneg: 1,  Box: 22720,  Free: 4464,
                                 Binary: 27340]
Objective nonzeros   :    9725
Linear constraints   :  123205  [Less: 41346,  Greater: 59096,  Equal: 22763]
  Nonzeros           :  291753
  RHS nonzeros       :   67495

Variables            : Min LB: -5000.000        Max UB: 1000000.       
Objective nonzeros   : Min   : 0.07500000       Max   : 2500.000       
Linear constraints   :
  Nonzeros           : Min   : 0.07500000       Max   : 1000000.       
  RHS nonzeros       : Min   : 0.07500000       Max   : 1000000.       
CPLEX> CPXPARAM_Parallel                                -1
CPXPARAM_Simplex_Tolerances_Feasibility          1.0000000000000001e-09
CPXPARAM_DetTimeLimit                            100000
CPXPARAM_MIP_Tolerances_MIPGap                   0.01
Warning:  No solution found from 1 MIP starts.
Retaining values of one MIP start for possible repair.
Tried aggregator 3 times.
MIP Presolve eliminated 88683 rows and 19727 columns.
MIP Presolve added 3379 rows and 0 columns.
MIP Presolve modified 24806 coefficients.
Aggregator did 12979 substitutions.
Reduced MIP has 24922 rows, 21263 columns, and 71095 nonzeros.
Reduced MIP has 8405 binaries, 0 generals, 0 SOSs, and 0 indicators.
Presolve time = 0.27 sec. (168.35 ticks)
Probing fixed 394 vars, tightened 4002 bounds.
Probing time = 0.08 sec. (18.58 ticks)
Tried aggregator 2 times.
MIP Presolve eliminated 890 rows and 789 columns.
MIP Presolve modified 3029 coefficients.
Aggregator did 35 substitutions.
Reduced MIP has 23997 rows, 20439 columns, and 68416 nonzeros.
Reduced MIP has 8011 binaries, 0 generals, 0 SOSs, and 0 indicators.
Presolve time = 0.11 sec. (89.07 ticks)
Probing fixed 0 vars, tightened 261 bounds.
Probing time = 0.14 sec. (22.76 ticks)
Clique table members: 44690.
MIP emphasis: balance optimality and feasibility.
MIP search method: dynamic search.
Parallel mode: opportunistic, using up to 32 threads.
Root relaxation solution time = 0.53 sec. (678.77 ticks)

        Nodes                                         Cuts/
   Node  Left     Objective  IInf  Best Integer    Best Bound    ItCnt     Gap

      0     0    61181.2288   118                  61181.2288     5547         
      0     0    61180.9460     8                    Cuts: 16     5559         
      0     0    61179.3279     8                     Cuts: 4     5565         
      0     0    61176.5504     9                     Cuts: 3     5567         
      0     0    61161.0085    13                     Cuts: 3     5576         
*     0+    0                        59921.3448    61161.0085             2.07%
Repair heuristic found nothing.
      0     4    infeasible          59921.3448       Cuts: 2     5630    1.96%
Elapsed time = 4.91 sec. (2715.15 ticks, tree = 0.02 MB, solutions = 1)
*    43    33      integral     0    59982.5715    61046.0263     6270    1.77%
*   131    36      integral     0    60909.8898    61046.0263     6280    0.22%
    350    57    60711.9184     0    60909.8898    61046.0263     6563    0.22%

Cover cuts applied:  5
Implied bound cuts applied:  17
Flow cuts applied:  8
Gomory fractional cuts applied:  1

Root node processing (before b&c):
  Real time             =    3.75 sec. (2708.54 ticks)
Parallel b&c, 32 threads:
  Real time             =    2.77 sec. (261.81 ticks)
  Sync time (average)   =    1.29 sec.
  Wait time (average)   =    0.00 sec.
                          ------------
Total (root+branch&cut) =    6.52 sec. (2970.35 ticks)

Solution pool: 10 solutions saved.

MIP - Integer optimal, tolerance (0.01/1e-06):  Objective =  6.0909889791e+04
Current MIP best bound =  6.0918343898e+04 (gap = 8.45411, 0.01%)
Solution time =    6.55 sec.  Iterations = 7133  Nodes = 351 (15)
Deterministic time = 2970.50 ticks  (453.72 ticks/sec)

CPLEX> Incumbent solution written to file 'C:\Users\llavin\Desktop\test826\logs\tmp_bar4rn1.cplex.sol'.
CPLEX> Exporting results... 
